10 6 15 4 18 14 11 8 17 12 0 19 16 5 9 13 7 2 3 1  
6 10 4 11 8 15 0 18 14 12 17 1 5 9 19 7 2 13 16 3  
10 6 15 4 18 14 11 17 8 12 0 19 16 5 9 13 7 3 1 2  
10 6 15 4 18 14 11 17 8 12 0 19 16 5 9 13 2 1 7 3  
10 6 15 4 18 14 11 17 8 12 0 19 16 5 9 13 2 1 7 3  
10 6 15 4 11 18 14 0 8 12 17 1 5 9 13 2 7 19 16 3  
10 6 15 4 14 18 11 17 8 12 0 13 16 5 9 19 1 7 2 3  
10 6 15 4 18 14 11 17 8 12 0 13 16 5 9 2 19 7 3 1  
10 6 15 4 18 14 11 17 8 12 0 13 16 5 9 19 2 7 3 1  
10 6 15 4 18 14 11 17 8 12 0 19 16 5 9 13 7 2 1 3  
10 6 15 4 18 14 12 17 8 11 7 0 1 5 9 13 2 19 16 3  
10 6 15 4 11 18 14 7 8 17 12 0 1 5 9 13 2 19 16 3  
10 6 15 4 18 14 11 17 8 12 0 9 19 16 5 2 7 3 1 13  
10 6 15 4 18 11 14 0 8 12 17 1 5 9 13 2 7 19 16 3  
10 6 15 4 18 14 7 8 11 17 12 9 19 0 1 5 13 2 16 3  
10 6 15 4 18 14 11 17 8 12 0 13 16 5 9 19 7 2 3 1  
10 6 15 4 18 14 11 17 8 12 0 19 16 5 9 13 3 2 1 7  
10 6 15 4 18 14 11 17 8 12 0 13 16 5 9 19 2 7 3 1  
10 6 15 4 11 14 18 8 17 12 0 19 16 5 9 13 2 7 3 1  
10 6 15 4 18 14 11 17 8 12 0 19 16 5 9 13 2 1 7 3  
10 6 15 4 18 14 11 7 17 8 12 0 1 5 9 13 2 19 16 3  
10 6 15 4 18 14 11 17 8 12 0 19 16 5 9 13 2 3 1 7  
10 6 15 4 18 14 8 17 11 12 0 19 16 5 9 13 2 7 3 1  
10 6 15 4 18 14 11 17 8 12 0 19 16 5 9 13 7 2 1 3  
10 6 15 4 18 14 11 17 8 12 0 19 16 5 9 13 2 3 1 7  
10 6 15 4 18 14 12 17 8 11 5 9 19 7 0 1 2 13 16 3  
10 6 15 4 18 14 11 17 8 12 0 19 16 5 9 13 7 3 1 2  
10 6 15 4 18 14 11 17 8 12 5 9 19 1 0 13 7 2 16 3  
10 6 15 4 18 14 11 17 8 12 0 19 16 5 9 13 7 3 1 2  
10 6 15 4 18 14 11 7 2 8 17 12 5 9 13 1 0 19 16 3  
10 6 15 4 18 14 11 17 8 12 0 9 19 16 5 13 2 7 3 1  
10 6 15 4 18 14 11 17 8 12 0 19 16 5 9 13 7 3 1 2  
10 6 15 4 18 14 11 17 8 12 5 9 19 13 16 0 1 7 2 3  
10 6 15 4 18 14 11 17 8 12 0 19 16 5 9 13 7 3 1 2  
10 6 15 4 18 14 11 7 17 8 12 0 1 5 9 13 2 19 16 3  
10 6 15 4 18 14 11 17 8 12 0 13 16 5 9 19 3 1 7 2  
10 6 15 4 18 14 11 17 8 12 0 13 16 5 9 19 7 3 1 2  
